% Auto-generated by scripts/generate_dzn.py
% problem_type   = regex
% instance       = regex_65
% source_json    = instances_json/1_medium_blowup/regex_65.json
% blowup         = 3.611111111111111
% representation = NFA

mode = 1;

var_count = 14;
n_constraints = 2;
Q = 9;
S = 2;
q0 = [1, 1];
F = [{9}, {9}];
weights = [7, 5, 4, 3, 3, 1, 3, 5, 7, 3, 10, 8, 8, 10];
d_dfa = array3d(1..2, 1..9, 1..2, [
  % k = 1
    0, 0,
    0, 0,
    0, 0,
    0, 0,
    0, 0,
    0, 0,
    0, 0,
    0, 0,
    0, 0,

  % k = 2
    0, 0,
    0, 0,
    0, 0,
    0, 0,
    0, 0,
    0, 0,
    0, 0,
    0, 0,
    0, 0
]);
d_nfa = array3d(1..2, 1..9, 1..2, [
  % k = 1
    {1}, {1, 2},
    {3}, {},
    {4}, {4},
    {5}, {5},
    {6}, {6},
    {7}, {7},
    {8}, {8},
    {9}, {9},
    {}, {},

  % k = 2
    {2}, {1},
    {3}, {2},
    {4}, {3},
    {5}, {4},
    {6}, {5},
    {7}, {6},
    {8}, {7},
    {9}, {8},
    {}, {9}
]);
